 H  O                                   
   1.00000000000000     
    20.0000000000000000    0.0000000000000000    0.0000000000000000
     0.0000000000000000   20.0000000000000000    0.0000000000000000
     0.0000000000000000    0.0000000000000000   20.0000000000000000
   H    O 
    12     6
Direct
  0.5111870906746401  0.4664309863211388  0.4368269176558945
  0.5787421719565887  0.5094804902961524  0.4343342461762247
  0.5109184988029031  0.5367233030640136  0.5741942995912958
  0.5004373208435072  0.4624353294864054  0.5624288771148731
  0.6081608468529562  0.4935368406925556  0.5383350826278037
  0.6769969972099993  0.4770584828907050  0.5053831242270289
  0.4206453690450255  0.4354745527054035  0.4900055118599828
  0.4527274813983586  0.3661279508019312  0.5061917327807698
  0.3354477634018413  0.4989062176340467  0.5371802405241068
  0.3960789646236098  0.5364282667375455  0.4995130491109141
  0.4943218621411422  0.5611614204537346  0.4619107270545779
  0.4664143637458621  0.6305168574032406  0.4877113704589359
  0.5320022157547217  0.5077365594201744  0.4183929332131622
  0.5288738578971953  0.4923035577452377  0.5863013993454695
  0.6430785884677833  0.5123417909980912  0.5062887172950483
  0.4636140435456593  0.4101888397304222  0.4901143204993221
  0.3663177719156593  0.4962899408101544  0.4991153212805753
  0.4651093626683325  0.5847938485430797  0.4986536558880748
 
  0.21411661E-02 -0.76965520E-02  0.13901129E-01
 -0.13721706E-01  0.44979917E-02  0.66477037E-02
  0.78146149E-03 -0.27667391E-02 -0.86277370E-02
 -0.12765892E-01 -0.19327255E-01 -0.10919767E-01
  0.35325876E-03  0.16842657E-02  0.36688865E-02
  0.83635535E-02  0.78621954E-02 -0.28413865E-01
 -0.22934337E-02  0.28253179E-01 -0.77643117E-02
  0.32501504E-02 -0.19119687E-01  0.11058472E-01
  0.21873259E-01  0.14645462E-01  0.12579893E-01
  0.93159910E-02  0.10119630E-01  0.58563079E-02
  0.16621971E-02  0.41527621E-02  0.34300465E-02
 -0.35129600E-02  0.15332156E-01 -0.97150180E-02
  0.52991145E-03  0.14050623E-02 -0.31577904E-02
  0.27812582E-02  0.33441408E-02  0.43679334E-02
 -0.19240746E-02 -0.26517726E-02  0.16345278E-02
  0.19375451E-02 -0.27599191E-02  0.26693927E-02
 -0.24891891E-02 -0.49548167E-03 -0.27937627E-02
 -0.18008914E-02 -0.11943677E-02 -0.22016596E-02
 
           1
  0.500000000000000     
  0.10000000E+01  0.00000000E+00  0.00000000E+00  0.00000000E+00
  0.51124062E+00  0.46623857E+00  0.43717445E+00
  0.57839913E+00  0.50959294E+00  0.43450044E+00
  0.51093804E+00  0.53665413E+00  0.57397861E+00
  0.50011817E+00  0.46195215E+00  0.56215588E+00
  0.60816968E+00  0.49357895E+00  0.53842680E+00
  0.67720609E+00  0.47725504E+00  0.50467278E+00
  0.42058803E+00  0.43618088E+00  0.48981140E+00
  0.45280874E+00  0.36564996E+00  0.50646819E+00
  0.33599459E+00  0.49927235E+00  0.53749474E+00
  0.39631186E+00  0.53668126E+00  0.49965946E+00
  0.49436342E+00  0.56126524E+00  0.46199648E+00
  0.46632654E+00  0.63090016E+00  0.48746850E+00
  0.53201546E+00  0.50777169E+00  0.41831399E+00
  0.52894339E+00  0.49238716E+00  0.58641060E+00
  0.64303049E+00  0.51227550E+00  0.50632958E+00
  0.46366248E+00  0.41011984E+00  0.49018106E+00
  0.36625554E+00  0.49627755E+00  0.49904548E+00
  0.46506434E+00  0.58476399E+00  0.49859861E+00
  0.23460248E-04 -0.20325761E-03  0.35723331E-03
 -0.34115966E-03  0.12485721E-03  0.14824024E-03
  0.10647812E-04 -0.53030936E-04 -0.21607332E-03
 -0.27200806E-03 -0.41692882E-03 -0.22284287E-03
 -0.13110742E-04  0.15575007E-06  0.11574835E-03
  0.21152862E-03  0.17959244E-03 -0.70524322E-03
 -0.36980896E-04  0.69197852E-03 -0.20387900E-03
  0.78966042E-04 -0.44814496E-03  0.27693695E-03
  0.52142649E-03  0.36112386E-03  0.33762909E-03
  0.23432209E-03  0.24352510E-03  0.13637768E-03
  0.62951785E-04  0.10302554E-03  0.54133069E-04
 -0.82245255E-04  0.27713745E-03 -0.22516289E-03
  0.14356708E-04  0.34980878E-04 -0.78311416E-04
  0.66016771E-04  0.78939779E-04  0.10625831E-03
 -0.46319458E-04 -0.62829720E-04  0.38940294E-04
  0.47529936E-04 -0.69246372E-04  0.66948677E-04
 -0.59711897E-04 -0.12006989E-04 -0.70442972E-04
 -0.46734465E-04 -0.23589672E-04 -0.54211480E-04
  0.00000000E+00  0.00000000E+00  0.00000000E+00
  0.00000000E+00  0.00000000E+00  0.00000000E+00
  0.00000000E+00  0.00000000E+00  0.00000000E+00
  0.00000000E+00  0.00000000E+00  0.00000000E+00
  0.00000000E+00  0.00000000E+00  0.00000000E+00
  0.00000000E+00  0.00000000E+00  0.00000000E+00
  0.00000000E+00  0.00000000E+00  0.00000000E+00
  0.00000000E+00  0.00000000E+00  0.00000000E+00
  0.00000000E+00  0.00000000E+00  0.00000000E+00
  0.00000000E+00  0.00000000E+00  0.00000000E+00
  0.00000000E+00  0.00000000E+00  0.00000000E+00
  0.00000000E+00  0.00000000E+00  0.00000000E+00
  0.00000000E+00  0.00000000E+00  0.00000000E+00
  0.00000000E+00  0.00000000E+00  0.00000000E+00
  0.00000000E+00  0.00000000E+00  0.00000000E+00
  0.00000000E+00  0.00000000E+00  0.00000000E+00
  0.00000000E+00  0.00000000E+00  0.00000000E+00
  0.00000000E+00  0.00000000E+00  0.00000000E+00
