 H  O 
 1.0000000000000000
    20.0000000000000000    0.0000000000000000    0.0000000000000000
     0.0000000000000000   20.0000000000000000    0.0000000000000000
     0.0000000000000000    0.0000000000000000   20.0000000000000000
   H   O
  12   6
Direct
  0.5156832169664344  0.4842311708695166  0.4242647673849656
  0.5824904955995234  0.5185933367714649  0.4453611323782030
  0.5103064808520150  0.5148162309101368  0.5765548105976006
  0.5082019748381436  0.4421609833339372  0.5510251945090143
  0.6073288592978282  0.4868915906404804  0.5428348174916305
  0.6765777744898553  0.4695251517971963  0.5084379751809067
  0.4168969587357559  0.4417457676040020  0.4794383433462708
  0.4477254852451786  0.3725991616667635  0.4552782689402387
  0.3348100714228777  0.4968344169272217  0.5387122952172233
  0.3925370873596530  0.5392636610026117  0.5060348813767418
  0.4962330495288326  0.5679892031650052  0.4768435599388435
  0.4683709491581447  0.6319591952964316  0.5166940321628912
  0.5393266688567041  0.5273716361120305  0.4219288414906061
  0.5316592469463627  0.4710408803690088  0.5834203259919323
  0.6413752704727584  0.5029489395298206  0.5097501954456570
  0.4598065112668847  0.4168320911190326  0.4713032699775080
  0.3596764834018051  0.5025290902820553  0.4973357704003122
  0.4668339297549742  0.5834113266165911  0.5159113880067573

 -0.0061643134949053  0.0016012041003384 -0.0192176890441695
 -0.0089725217377205  0.0044361077369261  0.0121176072733559
  0.0194332366072807 -0.0126737262892789  0.0088715269498108
 -0.0201690013922921 -0.0149443556118358 -0.0107673968005577
 -0.0061757234748121 -0.0031716544675810  0.0148314587554460
  0.0136379963493058  0.0175919621047121 -0.0160878839219911
  0.0318326541998458  0.0020542605753662  0.0062443280581973
  0.0330022144211350  0.0167270325725580 -0.0179992405532274
  0.0162857562557019 -0.0129587652370127  0.0127542868868780
 -0.0121987006894461 -0.0179848553570905  0.0118931067874943
  0.0215526433239642 -0.0076146304259134 -0.0067575912379211
  0.0121290772579066 -0.0306413769814349  0.0097056618369946
 -0.0011681549854001 -0.0065672741918593 -0.0051908116134644
  0.0007937107214720  0.0032020722226740 -0.0090822513263859
  0.0005483746298064 -0.0009517855572411 -0.0022955386280358
  0.0028263390916065 -0.0013378451121958 -0.0002524402916006
 -0.0055278474025596  0.0020704913690216 -0.0053941516309340
  0.0012327608687421 -0.0018182405417955 -0.0063819633624825