 H  O                                   
   1.00000000000000     
    20.0000011792299759    0.0000000000000000    0.0000000000000000
     0.0000000000000012   20.0000011792299759    0.0000000000000000
     0.0000000000000012    0.0000000000000012   20.0000011792299759
   H    O 
    12     6
Direct
  0.5166759295122105  0.4818945185053991  0.4245210031889783
  0.5829995168164999  0.5174640423615031  0.4429176847324641
  0.5093953732763339  0.5149540842894353  0.5759563323015513
  0.5086141621036973  0.4421877128900675  0.5516287012958685
  0.6102273543514372  0.4885351790079682  0.5433313670543782
  0.6824040054948881  0.4757496575061211  0.5153858947762586
  0.4178515636393598  0.4383861169965044  0.4782507940137393
  0.4481348879935751  0.3703721927105832  0.4531605013759545
  0.3228994476788927  0.4980137235881941  0.5351806959369512
  0.3910984069587471  0.5386986249508752  0.5068101331742838
  0.4957479726109000  0.5693684663706335  0.4773762540929383
  0.4702735808493159  0.6335815931192670  0.5158709501538539
  0.5391239382281796  0.5257253390643299  0.4210342157577571
  0.5319105818165255  0.4717324668297920  0.5836452244780901
  0.6437210986765436  0.5048200748950507  0.5100086814264273
  0.4609542154414683  0.4141891517117458  0.4702270186433495
  0.3570876756513428  0.5001058850811475  0.4998882893313947
  0.4667208019000810  0.5849650051213757  0.5159361242657639
 
  0.00000000E+00  0.00000000E+00  0.00000000E+00
  0.00000000E+00  0.00000000E+00  0.00000000E+00
  0.00000000E+00  0.00000000E+00  0.00000000E+00
  0.00000000E+00  0.00000000E+00  0.00000000E+00
  0.00000000E+00  0.00000000E+00  0.00000000E+00
  0.00000000E+00  0.00000000E+00  0.00000000E+00
  0.00000000E+00  0.00000000E+00  0.00000000E+00
  0.00000000E+00  0.00000000E+00  0.00000000E+00
  0.00000000E+00  0.00000000E+00  0.00000000E+00
  0.00000000E+00  0.00000000E+00  0.00000000E+00
  0.00000000E+00  0.00000000E+00  0.00000000E+00
  0.00000000E+00  0.00000000E+00  0.00000000E+00
  0.00000000E+00  0.00000000E+00  0.00000000E+00
  0.00000000E+00  0.00000000E+00  0.00000000E+00
  0.00000000E+00  0.00000000E+00  0.00000000E+00
  0.00000000E+00  0.00000000E+00  0.00000000E+00
  0.00000000E+00  0.00000000E+00  0.00000000E+00
  0.00000000E+00  0.00000000E+00  0.00000000E+00
