 H  O 
 1.0000000000000000
    20.0000000000000000    0.0000000000000000    0.0000000000000000
     0.0000000000000000   20.0000000000000000    0.0000000000000000
     0.0000000000000000    0.0000000000000000   20.0000000000000000
   H   O
  12   6
Cartesian
 10.3392087814043858  9.6463541489036935  8.4900767342636669
 11.6500817814043849 10.3498591489036933  8.8535657342636682
 10.1917687814043845 10.2897461489036921 11.5198287342636689
 10.1763517814043851  8.8507591489036912 11.0388027342636690
 12.2134207814043840  9.7734041489036922 10.8594087342636669
 13.6405327814043851  9.5198021489036933 10.3079757342636675
  8.3664337814043854  8.7614871489036936  9.5619757342636689
  8.9636727814043855  7.4154971489036923  9.0662487342636666
  6.4000000000000004  9.9500911489036916 10.7541317342636695
  7.8195657814043855 10.7631111489036932 10.1263477342636676
  9.9085237814043854 11.3923691489036933  9.5562757342636679
  9.4059027814043858 12.6630521489036916 10.3163749142636689
 10.7862467814043868 10.5053451489036931  8.4259477342636693
 10.6297067814043871  9.4371171489036918 11.6656567342636670
 12.8737427814043848 10.0891161489036918 10.2073547342636672
  9.2092877814043845  8.2813301489036917  9.4036507342636675
  7.2014947814043859 10.0224501489036921  9.9575697342636680
  9.3408677814043859 11.7039851489036906 10.3114047342636681
