 H  O                                   
   1.00000000000000     
    20.0000011792299759    0.0000000000000000    0.0000000000000000
     0.0000000000000012   20.0000011792299759    0.0000000000000000
     0.0000000000000012    0.0000000000000012   20.0000011792299759
   H    O 
    12     6
Direct
  0.5157645029877926  0.4845292566120349  0.4240330203245506
  0.5825564110512644  0.5187361190656503  0.4454870122778942
  0.5102166100472161  0.5147755215863654  0.5766085816568918
  0.5080820523448750  0.4421843457458294  0.5509133092765950
  0.6073076082029445  0.4867601334582901  0.5426992465191489
  0.6759269003620929  0.4686914918998326  0.5075410493774442
  0.4169304315510303  0.4418664868067452  0.4793522498514378
  0.4477380390851948  0.3726797978623395  0.4552793118023359
  0.3353904137160129  0.4966212200115123  0.5393044742602271
  0.3926360064406538  0.5392740098514750  0.5062416370452212
  0.4962238978219418  0.5681850013199607  0.4769068930822087
  0.4682636793682207  0.6320324312211412  0.5169048525735818
  0.5394369633479243  0.5276521500082652  0.4219790216207713
  0.5315897156678204  0.4709859216169860  0.5833619499331846
  0.6414002388732740  0.5027757791468304  0.5096412532503862
  0.4598324958405300  0.4169431691713967  0.4712081542856765
  0.3597048627118085  0.5025678108913212  0.4976363678232829
  0.4668396835794013  0.5834831887240384  0.5160314810391640
 
  0.00000000E+00  0.00000000E+00  0.00000000E+00
  0.00000000E+00  0.00000000E+00  0.00000000E+00
  0.00000000E+00  0.00000000E+00  0.00000000E+00
  0.00000000E+00  0.00000000E+00  0.00000000E+00
  0.00000000E+00  0.00000000E+00  0.00000000E+00
  0.00000000E+00  0.00000000E+00  0.00000000E+00
  0.00000000E+00  0.00000000E+00  0.00000000E+00
  0.00000000E+00  0.00000000E+00  0.00000000E+00
  0.00000000E+00  0.00000000E+00  0.00000000E+00
  0.00000000E+00  0.00000000E+00  0.00000000E+00
  0.00000000E+00  0.00000000E+00  0.00000000E+00
  0.00000000E+00  0.00000000E+00  0.00000000E+00
  0.00000000E+00  0.00000000E+00  0.00000000E+00
  0.00000000E+00  0.00000000E+00  0.00000000E+00
  0.00000000E+00  0.00000000E+00  0.00000000E+00
  0.00000000E+00  0.00000000E+00  0.00000000E+00
  0.00000000E+00  0.00000000E+00  0.00000000E+00
  0.00000000E+00  0.00000000E+00  0.00000000E+00
