 H  O                                   
   1.00000000000000     
    20.0000011792299759    0.0000000000000000    0.0000000000000000
     0.0000000000000012   20.0000011792299759    0.0000000000000000
     0.0000000000000012    0.0000000000000012   20.0000011792299759
   H    O 
    12     6
Direct
  0.5155329976944003  0.4842552492622403  0.4242653460638124
  0.5823498092788455  0.5186591536591934  0.4452948799840399
  0.5103092947643759  0.5146620854033728  0.5769322801606194
  0.5081167033928935  0.4421381394729877  0.5509831710586113
  0.6072388968335432  0.4868540950267572  0.5428280782330219
  0.6762555159881529  0.4693989720531277  0.5081134429279075
  0.4168859279130785  0.4418198399543982  0.4793797698871956
  0.4473918726991570  0.3724838289850894  0.4552951611583822
  0.3356257988324174  0.4965168042482517  0.5391852473890708
  0.3927074275870979  0.5393684053720946  0.5060763925164693
  0.4961599837731328  0.5680257150562227  0.4767430127200285
  0.4687614835895815  0.6322950702771735  0.5162743388674826
  0.5391576376421696  0.5273989688924772  0.4218983919449428
  0.5316139033311842  0.4708277088993142  0.5835305987565462
  0.6412492727830426  0.5030126194955500  0.5097605751703611
  0.4596828546102714  0.4166880373171935  0.4712544326030965
  0.3598517721824521  0.5025940875469814  0.4974836564414318
  0.4669493601042234  0.5837450540775535  0.5158310901169827
 
  0.00000000E+00  0.00000000E+00  0.00000000E+00
  0.00000000E+00  0.00000000E+00  0.00000000E+00
  0.00000000E+00  0.00000000E+00  0.00000000E+00
  0.00000000E+00  0.00000000E+00  0.00000000E+00
  0.00000000E+00  0.00000000E+00  0.00000000E+00
  0.00000000E+00  0.00000000E+00  0.00000000E+00
  0.00000000E+00  0.00000000E+00  0.00000000E+00
  0.00000000E+00  0.00000000E+00  0.00000000E+00
  0.00000000E+00  0.00000000E+00  0.00000000E+00
  0.00000000E+00  0.00000000E+00  0.00000000E+00
  0.00000000E+00  0.00000000E+00  0.00000000E+00
  0.00000000E+00  0.00000000E+00  0.00000000E+00
  0.00000000E+00  0.00000000E+00  0.00000000E+00
  0.00000000E+00  0.00000000E+00  0.00000000E+00
  0.00000000E+00  0.00000000E+00  0.00000000E+00
  0.00000000E+00  0.00000000E+00  0.00000000E+00
  0.00000000E+00  0.00000000E+00  0.00000000E+00
  0.00000000E+00  0.00000000E+00  0.00000000E+00
