 H  O                                   
   1.00000000000000     
    20.0000011792299759    0.0000000000000000    0.0000000000000000
     0.0000000000000012   20.0000011792299759    0.0000000000000000
     0.0000000000000012    0.0000000000000012   20.0000011792299759
   H    O 
    12     6
Direct
  0.5200213884363478  0.4501185461428818  0.3835563163532285
  0.5885136875682520  0.4912185908819424  0.3833538503687350
  0.5188055744435829  0.5196515102334871  0.5235977790846036
  0.5074111842011817  0.4454975254506977  0.5105389691894899
  0.6173305284704824  0.4780660501219316  0.4871436230197048
  0.6859909897256600  0.4602325729490033  0.4561725650713342
  0.4298938892995849  0.4194594952196553  0.4360772843892562
  0.4596023531095597  0.3502510776199514  0.4519105244406703
  0.3461238731270129  0.4809888682819263  0.4858996799498527
  0.4047141706805206  0.5185859907479156  0.4468133397094149
  0.5037340117675555  0.5444721939732347  0.4105996634409195
  0.4748538718133801  0.6135611482879071  0.4368375395372155
  0.5418369638749780  0.4910748435746299  0.3671920783534190
  0.5365060837509787  0.4745643202960395  0.5340982550905267
  0.6528023046554381  0.4962288381183626  0.4553366079090608
  0.4716775967711300  0.3936069165693112  0.4358741845328211
  0.3739608465291582  0.4801718791981386  0.4454889337837571
  0.4735944986360892  0.5678670812969031  0.4469619162642076
 
  0.00000000E+00  0.00000000E+00  0.00000000E+00
  0.00000000E+00  0.00000000E+00  0.00000000E+00
  0.00000000E+00  0.00000000E+00  0.00000000E+00
  0.00000000E+00  0.00000000E+00  0.00000000E+00
  0.00000000E+00  0.00000000E+00  0.00000000E+00
  0.00000000E+00  0.00000000E+00  0.00000000E+00
  0.00000000E+00  0.00000000E+00  0.00000000E+00
  0.00000000E+00  0.00000000E+00  0.00000000E+00
  0.00000000E+00  0.00000000E+00  0.00000000E+00
  0.00000000E+00  0.00000000E+00  0.00000000E+00
  0.00000000E+00  0.00000000E+00  0.00000000E+00
  0.00000000E+00  0.00000000E+00  0.00000000E+00
  0.00000000E+00  0.00000000E+00  0.00000000E+00
  0.00000000E+00  0.00000000E+00  0.00000000E+00
  0.00000000E+00  0.00000000E+00  0.00000000E+00
  0.00000000E+00  0.00000000E+00  0.00000000E+00
  0.00000000E+00  0.00000000E+00  0.00000000E+00
  0.00000000E+00  0.00000000E+00  0.00000000E+00
