 H  O                                   
   1.00000000000000     
    20.0000011792299759    0.0000000000000000    0.0000000000000000
     0.0000000000000012   20.0000011792299759    0.0000000000000000
     0.0000000000000012    0.0000000000000012   20.0000011792299759
   H    O 
    12     6
Direct
  0.5158299610706081  0.4848117870687432  0.4240432189455348
  0.5825896725073605  0.5189911168901062  0.4455331179541631
  0.5102661623933926  0.5147833027186408  0.5765756755361053
  0.5081723164318319  0.4421889535871415  0.5508668959606098
  0.6073608814343601  0.4867141059045608  0.5427069063174059
  0.6757315605695382  0.4683663392775372  0.5072703537650511
  0.4169151256368337  0.4418387588197135  0.4792597720505114
  0.4478032028810119  0.3726939467716832  0.4551963448283303
  0.3351960740410149  0.4965225020757842  0.5391943609026271
  0.3925838313674959  0.5391584394418487  0.5062946603098339
  0.4962309561266309  0.5682129978482706  0.4771015121690425
  0.4682577739251457  0.6319772791472715  0.5171573696971379
  0.5395086043262225  0.5279309030851422  0.4219743689334763
  0.5316187246823318  0.4709878492779964  0.5833635292260269
  0.6414739458457888  0.5027058843202212  0.5096550812729461
  0.4598502266553268  0.4169710333222483  0.4711242358272187
  0.3596742687150183  0.5024588767178599  0.4976175815091608
  0.4667772243900856  0.5834297587252308  0.5161948807948136
 
  0.00000000E+00  0.00000000E+00  0.00000000E+00
  0.00000000E+00  0.00000000E+00  0.00000000E+00
  0.00000000E+00  0.00000000E+00  0.00000000E+00
  0.00000000E+00  0.00000000E+00  0.00000000E+00
  0.00000000E+00  0.00000000E+00  0.00000000E+00
  0.00000000E+00  0.00000000E+00  0.00000000E+00
  0.00000000E+00  0.00000000E+00  0.00000000E+00
  0.00000000E+00  0.00000000E+00  0.00000000E+00
  0.00000000E+00  0.00000000E+00  0.00000000E+00
  0.00000000E+00  0.00000000E+00  0.00000000E+00
  0.00000000E+00  0.00000000E+00  0.00000000E+00
  0.00000000E+00  0.00000000E+00  0.00000000E+00
  0.00000000E+00  0.00000000E+00  0.00000000E+00
  0.00000000E+00  0.00000000E+00  0.00000000E+00
  0.00000000E+00  0.00000000E+00  0.00000000E+00
  0.00000000E+00  0.00000000E+00  0.00000000E+00
  0.00000000E+00  0.00000000E+00  0.00000000E+00
  0.00000000E+00  0.00000000E+00  0.00000000E+00
