 H  O                                   
   1.00000000000000     
    20.0000000000000000    0.0000000000000000    0.0000000000000000
     0.0000000000000000   20.0000000000000000    0.0000000000000000
     0.0000000000000000    0.0000000000000000   20.0000000000000000
   H    O 
    12     6
Direct
  0.5156961633350140  0.4835236545021322  0.4243394176009015
  0.5822416342105008  0.5185252389900976  0.4452958591560048
  0.5100135564795952  0.5145722823974581  0.5772032967147374
  0.5081935836334071  0.4419713036869136  0.5514630170454036
  0.6075196247895662  0.4873501043243635  0.5428683614196700
  0.6771820038425214  0.4707616792695663  0.5089821045663908
  0.4167960395832262  0.4416731373496824  0.4791408116496555
  0.4473744476198291  0.3723011072232848  0.4552820640707229
  0.3351358197296781  0.4966502927511276  0.5385106042500846
  0.3924616890116547  0.5394969992714455  0.5057287393407854
  0.4961307392330127  0.5678235547670369  0.4766684401354365
  0.4687290685167116  0.6321161201628855  0.5162738920444029
  0.5390099144490342  0.5268457929053434  0.4218398036754260
  0.5316991483909367  0.4709201959033250  0.5837606726625280
  0.6413232819634843  0.5034901620930019  0.5096815556158683
  0.4595947894848395  0.4164954557292205  0.4713134518116116
  0.3597842803382650  0.5026464832365080  0.4970511192329857
  0.4669547295824573  0.5835802694499200  0.5157266588446876
 
  0.00000000E+00  0.00000000E+00  0.00000000E+00
  0.00000000E+00  0.00000000E+00  0.00000000E+00
  0.00000000E+00  0.00000000E+00  0.00000000E+00
  0.00000000E+00  0.00000000E+00  0.00000000E+00
  0.00000000E+00  0.00000000E+00  0.00000000E+00
  0.00000000E+00  0.00000000E+00  0.00000000E+00
  0.00000000E+00  0.00000000E+00  0.00000000E+00
  0.00000000E+00  0.00000000E+00  0.00000000E+00
  0.00000000E+00  0.00000000E+00  0.00000000E+00
  0.00000000E+00  0.00000000E+00  0.00000000E+00
  0.00000000E+00  0.00000000E+00  0.00000000E+00
  0.00000000E+00  0.00000000E+00  0.00000000E+00
  0.00000000E+00  0.00000000E+00  0.00000000E+00
  0.00000000E+00  0.00000000E+00  0.00000000E+00
  0.00000000E+00  0.00000000E+00  0.00000000E+00
  0.00000000E+00  0.00000000E+00  0.00000000E+00
  0.00000000E+00  0.00000000E+00  0.00000000E+00
  0.00000000E+00  0.00000000E+00  0.00000000E+00
